certificates/rado_a9_c68_N23.drat
6 9 -23 0
-22 -23 0
-9 -23 0
d -9 -10 -23 0
-23 0
-20 0
6 0
-12 0
8 0
7 0
-4 0
-2 0
-10 0
-22 0
-1 0
-11 0
-13 0
-3 0
-21 0
0
